Optimal - objective value 273.00000000
      0 C_0                    22                       0
      1 C_1       18.0000000000001                       0
      2 C_2       7.00000000000001                       0
      3 C_3                    23                       0
      4 C_4                    32                       0
      5 C_5                    14                       0
      6 C_6       9.00000000000002                       0
      7 C_7       5.00000000000002                       0
      9 x_0_1                   1                    1080
     13 x_1_2                   1                     864
     15 x_2_1                   1                    2808
     17 x_3_0                   1                     216
     21 x_4_1                   1                     432
     24 x_5_1                   1                    1728
     26 x_6_0                   1                     864
     31 x_7_2                   1                    2808
     32 d_0_1_0                 1                       0
     38 d_0_3_0                 1                       0
     39 d_0_3_1                 1                       0
     42 d_0_4_1                 1                     432
     47 d_0_6_0                 1                       0
     54 d_1_2_1                 1                       0
     55 d_1_2_2                 1                       0
     56 d_1_3_0                 1                       0
     57 d_1_3_1                 1                       0
     58 d_1_3_2                 1                       0
     59 d_1_4_0                 1                       0
     61 d_1_4_2                 1                       0
     62 d_1_5_0                 1                       0
     63 d_1_5_1                 1                       0
     65 d_1_6_0                 1                       0
     66 d_1_6_1                 1                       0
     71 d_2_3_0                 1                       0
     72 d_2_3_1                 1                       0
     74 d_2_4_0                 1                       0
     75 d_2_4_1                 1                       0
     77 d_2_5_0                 1                       0
     78 d_2_5_1                 1                    1080
     79 d_2_5_2                 1                       0
     81 d_2_6_1                 1                       0
     82 d_2_6_2                 1                       0
     93 d_3_6_1                 1                       0
    101 d_4_6_0                 1                       0
    109 d_5_6_2                 1                       0
    115 d_6_7_2                 1                       0
